(set-option :produce-models true); benchmark generated from python API
(set-info :status unknown)
(declare-fun l_0_0_4 () Real)
(declare-fun _a_0_ () Real)
(declare-fun l_0_0_5 () Real)
(declare-fun l_0_0_1 () Real)
(declare-fun _a_1_ () Real)
(declare-fun l_0_0_6 () Real)
(declare-fun l_0_0_2 () Real)
(declare-fun _a_2_ () Real)
(declare-fun l_0_0_3 () Real)
(declare-fun l_0_1_7 () Real)
(declare-fun l_0_1_4 () Real)
(declare-fun l_0_1_1 () Real)
(declare-fun l_0_1_8 () Real)
(declare-fun l_0_1_5 () Real)
(declare-fun l_0_1_2 () Real)
(declare-fun l_0_1_9 () Real)
(declare-fun l_0_1_6 () Real)
(declare-fun l_0_1_3 () Real)
(declare-fun l_0_2_7 () Real)
(declare-fun l_0_2_4 () Real)
(declare-fun l_0_2_1 () Real)
(declare-fun l_0_2_8 () Real)
(declare-fun l_0_2_5 () Real)
(declare-fun l_0_2_2 () Real)
(declare-fun l_0_2_9 () Real)
(declare-fun l_0_2_6 () Real)
(declare-fun l_0_2_3 () Real)
(assert
 (= (- _a_0_ (* l_0_0_4 l_0_0_4)) 0.0))
(assert
 (let ((?x65 (- (- _a_1_ (* (* 80.0 l_0_0_1) l_0_0_1)) (* (* 2.0 l_0_0_4) l_0_0_5))))
 (= ?x65 0.0)))
(assert
 (let ((?x89 (* l_0_0_6 l_0_0_6)))
 (let ((?x87 (* l_0_0_5 l_0_0_5)))
 (let ((?x67 (* l_0_0_1 l_0_0_1)))
 (let ((?x90 (- (- (+ (- _a_2_ (* (* 160.0 l_0_0_1) l_0_0_2)) ?x67) ?x87) ?x89)))
 (= ?x90 0.0))))))
(assert
 (let ((?x111 (- (* (* 2.0 l_0_0_1) l_0_0_2) (* (* 80.0 l_0_0_2) l_0_0_2))))
 (= (- ?x111 (* (* 80.0 l_0_0_3) l_0_0_3)) 0.0)))
(assert
 (= (+ (* l_0_0_2 l_0_0_2) (* l_0_0_3 l_0_0_3)) 0.0))
(assert
 (>= l_0_0_1 0.0))
(assert
 (>= l_0_0_3 0.0))
(assert
 (>= l_0_0_4 0.0))
(assert
 (>= l_0_0_6 0.0))
(assert
 (let ((?x143 (* l_0_1_7 l_0_1_7)))
 (let ((?x139 (* l_0_1_4 l_0_1_4)))
 (let ((?x141 (* 82.0 ?x139)))
 (= (- (- (+ (* (* (- _a_0_) l_0_1_1) l_0_1_1) ?x141) ?x143) 790.0) 0.0)))))
(assert
 (let ((?x139 (* l_0_1_4 l_0_1_4)))
 (let ((?x171 (* 81.0 ?x139)))
 (let ((?x165 (- (* (* (* (- 2.0) _a_0_) l_0_1_1) l_0_1_2) (* (* _a_1_ l_0_1_1) l_0_1_1))))
 (let ((?x175 (- (+ (+ ?x165 (* (* 164.0 l_0_1_4) l_0_1_5)) ?x171) (* (* 2.0 l_0_1_7) l_0_1_8))))
 (= (- ?x175 69.0) 0.0))))))
(assert
 (let ((?x223 (* l_0_1_9 l_0_1_9)))
 (let ((?x221 (* l_0_1_8 l_0_1_8)))
 (let ((?x218 (* l_0_1_6 l_0_1_6)))
 (let ((?x219 (* 82.0 ?x218)))
 (let ((?x215 (* l_0_1_5 l_0_1_5)))
 (let ((?x216 (* 82.0 ?x215)))
 (let ((?x139 (* l_0_1_4 l_0_1_4)))
 (let ((?x206 (- (* (- _a_0_) (+ (* l_0_1_2 l_0_1_2) (* l_0_1_3 l_0_1_3))) (* (* (* 2.0 _a_1_) l_0_1_1) l_0_1_2))))
 (let ((?x213 (+ (- ?x206 (* (* _a_2_ l_0_1_1) l_0_1_1)) (* (* 162.0 l_0_1_4) l_0_1_5))))
 (= (+ (- (- (+ (+ (- ?x213 ?x139) ?x216) ?x219) ?x221) ?x223) 1.0) 0.0)))))))))))
(assert
 (let ((?x267 (- (* (- _a_1_) (+ (* l_0_1_2 l_0_1_2) (* l_0_1_3 l_0_1_3))) (* (* (* 2.0 _a_2_) l_0_1_1) l_0_1_2))))
 (let ((?x272 (+ (- ?x267 (* (* 2.0 l_0_1_4) l_0_1_5)) (* 81.0 (* l_0_1_5 l_0_1_5)))))
 (= (+ ?x272 (* 81.0 (* l_0_1_6 l_0_1_6))) 0.0))))
(assert
 (let ((?x218 (* l_0_1_6 l_0_1_6)))
 (let ((?x215 (* l_0_1_5 l_0_1_5)))
 (let ((?x300 (- (* (- _a_2_) (+ (* l_0_1_2 l_0_1_2) (* l_0_1_3 l_0_1_3))) ?x215)))
 (= (- ?x300 ?x218) 0.0)))))
(assert
 (>= l_0_1_1 0.0))
(assert
 (>= l_0_1_3 0.0))
(assert
 (>= l_0_1_4 0.0))
(assert
 (>= l_0_1_6 0.0))
(assert
 (>= l_0_1_7 0.0))
(assert
 (>= l_0_1_9 0.0))
(assert
 (let ((?x335 (* l_0_2_7 l_0_2_7)))
 (let ((?x330 (* (/ 1.0 4.0) _a_2_)))
 (let ((?x327 (* (/ 1.0 2.0) _a_1_)))
 (let ((?x331 (+ (+ (+ (* (* (- _a_0_) l_0_2_1) l_0_2_1) _a_0_) ?x327) ?x330)))
 (= (- (- ?x331 (* (* 82.0 l_0_2_4) l_0_2_4)) ?x335) 0.0))))))
(assert
 (let ((?x355 (- (* (* (* (- 2.0) _a_0_) l_0_2_1) l_0_2_2) (* (* _a_1_ l_0_2_1) l_0_2_1))))
 (let ((?x361 (- (+ (+ ?x355 _a_1_) (* 1.0 _a_2_)) (* (* 164.0 l_0_2_4) l_0_2_5))))
 (let ((?x367 (- (- ?x361 (* (* 81.0 l_0_2_4) l_0_2_4)) (* (* 2.0 l_0_2_7) l_0_2_8))))
 (= ?x367 0.0)))))
(assert
 (let ((?x423 (* l_0_2_9 l_0_2_9)))
 (let ((?x421 (* l_0_2_8 l_0_2_8)))
 (let ((?x339 (* l_0_2_4 l_0_2_4)))
 (let ((?x409 (* (/ 9997291.0 10000000.0) _a_2_)))
 (let ((?x403 (* (/ 2709.0 10000000.0) _a_1_)))
 (let ((?x401 (- (* (- _a_0_) (+ (* l_0_2_2 l_0_2_2) (* l_0_2_3 l_0_2_3))) (* (* (* 2.0 _a_1_) l_0_2_1) l_0_2_2))))
 (let ((?x413 (- (+ (- (- ?x401 ?x403) (* (* _a_2_ l_0_2_1) l_0_2_1)) ?x409) (* (* 162.0 l_0_2_4) l_0_2_5))))
 (let ((?x420 (- (- (+ ?x413 ?x339) (* (* 82.0 l_0_2_5) l_0_2_5)) (* (* 82.0 l_0_2_6) l_0_2_6))))
 (= (- (- ?x420 ?x421) ?x423) 0.0))))))))))
(assert
 (let ((?x481 (* (/ 2709.0 5000000.0) _a_2_)))
 (let ((?x479 (- (* (- _a_1_) (+ (* l_0_2_2 l_0_2_2) (* l_0_2_3 l_0_2_3))) (* (* (* 2.0 _a_2_) l_0_2_1) l_0_2_2))))
 (let ((?x488 (- (+ (- ?x479 ?x481) (* (* 2.0 l_0_2_4) l_0_2_5)) (* (* 81.0 l_0_2_5) l_0_2_5))))
 (= (- ?x488 (* (* 81.0 l_0_2_6) l_0_2_6)) 0.0)))))
(assert
 (let ((?x459 (* l_0_2_6 l_0_2_6)))
 (let ((?x453 (* l_0_2_5 l_0_2_5)))
 (let ((?x526 (* (/ 7338681.0 100000000000000.0) _a_2_)))
 (let ((?x527 (+ (* (- _a_2_) (+ (* l_0_2_2 l_0_2_2) (* l_0_2_3 l_0_2_3))) ?x526)))
 (= (+ (+ ?x527 ?x453) ?x459) 0.0))))))
(assert
 (>= l_0_2_1 0.0))
(assert
 (>= l_0_2_3 0.0))
(assert
 (>= l_0_2_4 0.0))
(assert
 (>= l_0_2_6 0.0))
(assert
 (>= l_0_2_7 0.0))
(assert
 (>= l_0_2_9 0.0))
(check-sat)
(get-model)